67
21
21
49
0
413
84
44
102
53
19
13
18
24
45
0
45
98
0
369
29
38
44
756
36
32
164
0
35
397
0
0
20
51
194
22
28
40
124
47
19
18
163
36
18
40
107
0
0
92
48
50
39
102
24
38
14
81
469
23
36
17
0
0
51
28
53
24
340
14
11
33
13
30
107
26
233
38
478
43
37
29
39
47
205
120
0
282
112
56
12
19
13
19
1533
26
24
36
91
40
